Trabalho_1/examplos/lp/exemplo_cuttin_paper_roll_300.lp
min: x0 + x1 + x2 + x3 + x4 + x5 + x6 + x7 + x8 + x9 + x10 + x11 ; 

+ 2 x0 + 1 x3 + 1 x4 + 1 x8  >=  97 ;
+ 1 x1 + 1 x3 + 2 x5 + 1 x6 + 1 x9  >=  610 ;
+ 2 x1 + 3 x2 + 1 x4 + 1 x6 + 2 x7 + 1 x10  >=  395 ;
+ 1 x3 + 1 x4 + 2 x5 + 2 x6 + 2 x7 + 3 x8 + 4 x9 + 4 x10 + 7 x11  >=  211 ;
