examplos/program/exemplo_cuttin_paper_roll_300.txt
1 4
97 135
610 108
395 93
211 42